NAME 
ROWS
 N  OBJ
 L  R0      
 L  R1      
 E  R2      
 E  R3      
 E  R4      
 E  R5      
 E  R6      
COLUMNS
    MARKER    'MARKER'                 'INTORG'
    I0(5)     OBJ       -25
    I0(5)     R0        195
    I0(5)     R1        -130
    I0(5)     R2        17
    I0(5)     R3        14
    I0(5)     R6        1
    I1(5)     OBJ       -36
    I1(5)     R0        -159
    I1(5)     R1        41
    I1(5)     R2        17
    I1(5)     R3        10
    I1(5)     R6        1
    MARKER    'MARKER'                 'INTEND'
    C2(5)     OBJ       7
    C2(5)     R0        -6
    C2(5)     R1        -6
    C2(5)     R2        4
    C2(5)     R4        7
    C2(5)     R5        12
    C3(5)     OBJ       -8
    C3(5)     R0        -5
    C3(5)     R1        1
    C3(5)     R2        8
    C3(5)     R4        11
    C3(5)     R5        9
    C4(5)     OBJ       -7
    C4(5)     R0        1
    C4(5)     R1        -1
    C4(5)     R3        11
    C4(5)     R4        5
    C4(5)     R5        10
    C5(1)     R2        1
    C6(1)     R3        1
    C7(1)     R4        1
    C8(1)     R5        1
    C9(1)     R6        1
RHS
    RHS1      R0        -1.1815384615384620e+01
    RHS1      R1        -1.4153846153846112e+00
    RHS1      R2        67
    RHS1      R3        70
    RHS1      R4        60
    RHS1      R5        77
BOUNDS
 UP BND1      I0(5)     2
 UP BND1      I1(5)     2
ENDATA
